65 14 47 11 28 33 31 42 41 38 40 69 67 93 80 77 20 84 56 89 32 35 60 68 55 100 70 
92 95 83 82 88 15 12 45 9 85 19 21 51 49 22 57 74 13 10 53 6 4 46 1 43 39 91 66 24 17 
64 62 72 52 71 61 29 63 27 81 94 36 37 3 97 54 48 25 58 
44 30 23 76 2 8 5 79 73 59 87 90 99 96 34 50 
98 78 16 75 7 86 18 26 

